580941
579543
558359
558359
558359
558359
558359
558359
558359
558359
554236
548418
548418
548418
548418
548418
548418
548418
548418
548418
548418
539707
539707
539707
539707
539707
539707
539707
539707
537179
536308
536308
536308
531442
531442
531442
530794
526372
525851
525754
524542
524542
524542
502294
502294
502294
502294
502294
502294
502294
502294
502294
495277
495277
495277
495277
495277
495277
495277
495277
495277
490580
490580
490580
490580
490580
490580
490580
490580
490580
490580
490580
490580
490580
490580
487468
487468
487468
486271
483723
483723
483723
471730
471730
471730
471730
471730
471730
471730
471730
471730
464803
464803
464803
464803
464803
464803
464803
464803
464803
